************************************************************************
file with basedata            : mm26_.bas
initial value random generator: 829674294
************************************************************************
projects                      :  1
jobs (incl. supersource/sink ):  12
horizon                       :  83
RESOURCES
  - renewable                 :  2   R
  - nonrenewable              :  2   N
  - doubly constrained        :  0   D
************************************************************************
PROJECT INFORMATION:
pronr.  #jobs rel.date duedate tardcost  MPM-Time
    1     10      0       17        2       17
************************************************************************
PRECEDENCE RELATIONS:
jobnr.    #modes  #successors   successors
   1        1          3           2   3   4
   2        3          2           5  11
   3        3          2           8  11
   4        3          1           9
   5        3          2           6   7
   6        3          2           9  10
   7        3          2           8  10
   8        3          1           9
   9        3          1          12
  10        3          1          12
  11        3          1          12
  12        1          0        
************************************************************************
REQUESTS/DURATIONS:
jobnr. mode duration  R 1  R 2  N 1  N 2
------------------------------------------------------------------------
  1      1     0       0    0    0    0
  2      1     6       0    6    7    0
         2     7       0    6    5    0
         3    10       0    5    4    0
  3      1     4       3    0    9    0
         2     8       0    6    8    0
         3     9       3    0    5    0
  4      1     3       9    0    0   10
         2     5       0    5    5    0
         3    10       0    4    0    9
  5      1     2       0    4   10    0
         2     3       8    0    7    0
         3     3       9    0    0    2
  6      1     5       0    8    0    6
         2     6       8    0    9    0
         3     9       6    0    9    0
  7      1     4       0    4    0    7
         2     5       0    4    3    0
         3     7       9    0    0    6
  8      1     3       0    9    8    0
         2     5       4    0    0    9
         3    10       0    9    0    7
  9      1     2       7    0    0    9
         2     9       6    0    0    7
         3    10       1    0    3    0
 10      1     1       0    9    3    0
         2     1       4    0    0    5
         3     8       0   10    0    5
 11      1     6       7    0    0    2
         2     6       8    0    5    0
         3     7       6    0    0    2
 12      1     0       0    0    0    0
************************************************************************
RESOURCEAVAILABILITIES:
  R 1  R 2  N 1  N 2
   25   19   36   25
************************************************************************
MAXIMAL LAGS:
from  to  type  delay
    1   12   ES      0
    1    2   ES      0
    2   12   ES      0
    1    3   ES      0
    3   12   ES      0
    1    4   ES      0
    4   12   ES      0
    1    5   ES      0
    5   12   ES      0
    1    6   ES      0
    6   12   ES      0
    1    7   ES      0
    7   12   ES      0
    1    8   ES      0
    8   12   ES      0
    1    9   ES      0
    9   12   ES      0
    1   10   ES      0
   10   12   ES      0
    1   11   ES      0
   11   12   ES      0
    1   12   ES      0
    2    5   SS      5
    2    5   SE      1
    5    2   SE      0
    2    5   ES      0
    2    5   EE     -5
    2   11   SS     -7
    2   11   SE     10
    2   11   ES     11
    2   11   EE      8
    3    8   SS      0
    3    8   SE      0
    3    8   ES     -5
    3    8   EE     -4
    3   11   SS    -10
    3   11   SE      1
    3   11   ES      8
    3   11   EE     -5
    4    9   SS      4
    4    9   SE     12
    4    9   ES      7
    4    9   EE     10
    5    6   SS      9
    5    6   SE     -4
    5    6   ES     -3
    5    6   EE      8
    5    7   SS     11
    5    7   SE      5
    5    7   ES     -4
    5    7   EE      1
    6    9   SS     -6
    6    9   SE    -10
    6    9   ES     -7
    6    9   EE     -8
    6   10   SS     -3
    6   10   SE     -9
    6   10   ES      8
    6   10   EE      2
    7    8   SS      7
    7    8   SE      2
    7    8   ES     -4
    7    8   EE     10
    7   10   SS      7
    7   10   SE      3
    7   10   ES     -6
    7   10   EE     -2
    8    9   SS    -12
    8    9   SE     -8
    8    9   ES    -11
    8    9   EE      5
************************************************************************
